c Reduced graph for DSJR500.1 generated by Cyril Grelier
p edge 417 2945
e 1 7
e 1 12
e 1 27
e 1 30
e 1 34
e 1 79
e 1 90
e 1 118
e 1 121
e 1 125
e 1 146
e 1 165
e 1 166
e 1 179
e 1 220
e 1 233
e 1 239
e 1 309
e 1 311
e 1 333
e 1 369
e 1 375
e 1 378
e 2 10
e 2 33
e 2 57
e 2 116
e 2 141
e 2 159
e 2 205
e 2 210
e 2 221
e 2 231
e 2 269
e 2 276
e 2 310
e 2 316
e 2 352
e 2 353
e 2 364
e 2 367
e 2 372
e 3 28
e 3 83
e 3 113
e 3 115
e 3 222
e 3 249
e 3 275
e 3 308
e 3 313
e 3 348
e 3 350
e 3 351
e 3 357
e 3 365
e 3 366
e 3 381
e 3 393
e 3 403
e 3 416
e 4 9
e 4 46
e 4 64
e 4 68
e 4 78
e 4 82
e 4 117
e 4 139
e 4 142
e 4 161
e 4 229
e 4 251
e 4 255
e 4 256
e 4 274
e 4 312
e 4 319
e 4 330
e 4 379
e 5 26
e 5 33
e 5 84
e 5 85
e 5 140
e 5 200
e 5 219
e 5 223
e 5 260
e 5 277
e 5 278
e 5 315
e 5 329
e 5 352
e 5 364
e 5 371
e 5 404
e 5 405
e 6 26
e 6 37
e 6 50
e 6 84
e 6 100
e 6 140
e 6 145
e 6 186
e 6 219
e 6 223
e 6 226
e 6 247
e 6 267
e 6 318
e 6 329
e 6 391
e 6 405
e 6 411
e 7 12
e 7 27
e 7 30
e 7 34
e 7 79
e 7 90
e 7 99
e 7 125
e 7 206
e 7 233
e 7 239
e 7 311
e 7 333
e 7 369
e 7 375
e 7 383
e 8 13
e 8 31
e 8 38
e 8 61
e 8 62
e 8 87
e 8 258
e 8 298
e 8 314
e 8 335
e 8 345
e 8 349
e 8 350
e 8 357
e 8 366
e 8 386
e 8 395
e 9 40
e 9 46
e 9 64
e 9 82
e 9 117
e 9 123
e 9 126
e 9 142
e 9 161
e 9 162
e 9 187
e 9 229
e 9 256
e 9 295
e 9 323
e 9 379
e 10 33
e 10 57
e 10 116
e 10 159
e 10 205
e 10 221
e 10 231
e 10 269
e 10 276
e 10 316
e 10 352
e 10 353
e 10 364
e 10 367
e 10 372
e 10 404
e 11 95
e 11 96
e 11 122
e 11 160
e 11 182
e 11 183
e 11 191
e 11 199
e 11 236
e 11 240
e 11 263
e 11 287
e 11 289
e 11 331
e 11 396
e 11 401
e 12 27
e 12 34
e 12 79
e 12 90
e 12 99
e 12 125
e 12 206
e 12 233
e 12 239
e 12 311
e 12 333
e 12 369
e 12 375
e 12 383
e 13 31
e 13 38
e 13 61
e 13 258
e 13 314
e 13 335
e 13 345
e 13 349
e 13 350
e 13 357
e 13 366
e 13 386
e 13 393
e 13 395
e 13 416
e 14 43
e 14 56
e 14 144
e 14 164
e 14 177
e 14 181
e 14 202
e 14 230
e 14 232
e 14 259
e 14 332
e 14 355
e 14 389
e 14 394
e 15 20
e 15 35
e 15 88
e 15 128
e 15 167
e 15 176
e 15 280
e 15 321
e 15 334
e 15 344
e 15 356
e 15 406
e 16 17
e 16 137
e 16 141
e 16 205
e 16 210
e 16 231
e 16 269
e 16 310
e 16 316
e 16 353
e 16 367
e 17 74
e 17 76
e 17 141
e 17 151
e 17 168
e 17 288
e 17 310
e 17 400
e 17 415
e 18 66
e 18 92
e 18 103
e 18 104
e 18 146
e 18 149
e 18 180
e 18 220
e 18 378
e 19 40
e 19 45
e 19 56
e 19 123
e 19 163
e 19 230
e 19 337
e 19 399
e 20 88
e 20 128
e 20 176
e 20 253
e 20 382
e 20 406
e 21 67
e 21 110
e 21 157
e 21 215
e 21 294
e 21 305
e 21 306
e 22 70
e 22 106
e 22 173
e 22 213
e 22 260
e 22 361
e 22 391
e 23 66
e 23 154
e 23 193
e 23 217
e 23 285
e 23 412
e 24 75
e 24 218
e 24 324
e 25 53
e 25 158
e 26 37
e 26 84
e 26 85
e 26 100
e 26 140
e 26 173
e 26 200
e 26 219
e 26 223
e 26 226
e 26 247
e 26 260
e 26 267
e 26 277
e 26 278
e 26 318
e 26 329
e 26 371
e 26 391
e 26 405
e 27 30
e 27 34
e 27 79
e 27 90
e 27 118
e 27 121
e 27 146
e 27 165
e 27 166
e 27 179
e 27 220
e 27 233
e 27 239
e 27 309
e 27 311
e 27 333
e 27 369
e 27 375
e 27 378
e 28 58
e 28 83
e 28 113
e 28 115
e 28 124
e 28 222
e 28 257
e 28 275
e 28 308
e 28 313
e 28 317
e 28 348
e 28 351
e 28 363
e 28 365
e 28 381
e 28 393
e 28 403
e 28 409
e 29 32
e 29 58
e 29 81
e 29 113
e 29 124
e 29 178
e 29 197
e 29 198
e 29 207
e 29 228
e 29 241
e 29 248
e 29 348
e 29 350
e 29 354
e 29 363
e 29 373
e 29 403
e 29 407
e 29 414
e 30 79
e 30 94
e 30 118
e 30 121
e 30 165
e 30 166
e 30 179
e 30 201
e 30 220
e 30 262
e 30 309
e 30 311
e 30 368
e 30 369
e 30 376
e 30 382
e 31 36
e 31 61
e 31 62
e 31 81
e 31 143
e 31 197
e 31 198
e 31 228
e 31 258
e 31 298
e 31 314
e 31 349
e 31 350
e 31 366
e 31 373
e 31 390
e 31 408
e 32 58
e 32 81
e 32 102
e 32 169
e 32 178
e 32 197
e 32 198
e 32 228
e 32 237
e 32 241
e 32 248
e 32 252
e 32 297
e 32 354
e 32 373
e 32 390
e 32 407
e 32 414
e 33 57
e 33 85
e 33 116
e 33 159
e 33 200
e 33 205
e 33 231
e 33 260
e 33 276
e 33 277
e 33 352
e 33 361
e 33 364
e 33 367
e 33 371
e 33 404
e 34 79
e 34 90
e 34 125
e 34 146
e 34 206
e 34 220
e 34 233
e 34 239
e 34 309
e 34 311
e 34 333
e 34 369
e 34 375
e 34 383
e 35 57
e 35 88
e 35 116
e 35 128
e 35 167
e 35 221
e 35 242
e 35 276
e 35 279
e 35 280
e 35 321
e 35 334
e 35 352
e 35 356
e 35 406
e 36 61
e 36 62
e 36 86
e 36 87
e 36 89
e 36 143
e 36 229
e 36 258
e 36 286
e 36 298
e 36 314
e 36 342
e 36 349
e 36 390
e 36 408
e 37 84
e 37 140
e 37 145
e 37 186
e 37 219
e 37 223
e 37 226
e 37 267
e 37 315
e 37 318
e 37 329
e 37 405
e 37 411
e 38 61
e 38 258
e 38 314
e 38 335
e 38 345
e 38 349
e 38 357
e 38 366
e 38 386
e 38 393
e 38 395
e 38 416
e 39 88
e 39 93
e 39 94
e 39 128
e 39 167
e 39 201
e 39 238
e 39 262
e 39 279
e 39 320
e 39 356
e 39 382
e 39 406
e 39 413
e 40 45
e 40 46
e 40 52
e 40 64
e 40 68
e 40 123
e 40 162
e 40 163
e 40 337
e 40 374
e 40 379
e 40 399
e 41 91
e 41 130
e 41 184
e 41 204
e 41 225
e 41 234
e 41 266
e 41 281
e 41 340
e 41 344
e 41 346
e 41 359
e 41 410
e 42 60
e 42 65
e 42 105
e 42 109
e 42 152
e 42 190
e 42 211
e 42 224
e 42 227
e 42 244
e 42 322
e 42 387
e 43 56
e 43 144
e 43 164
e 43 202
e 43 232
e 43 332
e 43 355
e 43 389
e 43 394
e 44 133
e 44 156
e 44 170
e 44 174
e 44 212
e 44 254
e 44 270
e 44 322
e 44 338
e 44 370
e 45 52
e 45 123
e 45 163
e 45 230
e 45 337
e 45 379
e 45 399
e 46 64
e 46 68
e 46 142
e 46 161
e 46 330
e 46 379
e 47 75
e 47 131
e 47 147
e 47 214
e 47 246
e 47 265
e 47 272
e 47 284
e 47 307
e 48 107
e 48 132
e 48 138
e 48 172
e 48 195
e 48 244
e 48 264
e 48 268
e 48 341
e 49 50
e 49 69
e 49 100
e 49 173
e 49 247
e 49 318
e 49 325
e 50 100
e 50 247
e 50 267
e 50 318
e 50 325
e 51 129
e 51 148
e 51 175
e 51 290
e 51 326
e 51 412
e 52 54
e 52 68
e 52 379
e 53 158
e 54 68
e 55 56
e 55 97
e 55 114
e 55 144
e 55 162
e 55 163
e 55 164
e 55 177
e 55 181
e 55 209
e 55 230
e 55 232
e 55 259
e 55 283
e 55 295
e 55 300
e 55 302
e 55 332
e 55 355
e 55 374
e 55 389
e 55 394
e 55 397
e 55 398
e 56 114
e 56 123
e 56 144
e 56 162
e 56 163
e 56 164
e 56 177
e 56 181
e 56 202
e 56 230
e 56 232
e 56 295
e 56 332
e 56 337
e 56 355
e 56 374
e 56 389
e 56 394
e 56 399
e 57 85
e 57 116
e 57 159
e 57 221
e 57 242
e 57 276
e 57 277
e 57 280
e 57 316
e 57 334
e 57 352
e 57 353
e 57 356
e 57 364
e 57 367
e 57 371
e 57 372
e 57 404
e 58 81
e 58 113
e 58 124
e 58 178
e 58 207
e 58 228
e 58 241
e 58 243
e 58 308
e 58 348
e 58 350
e 58 351
e 58 354
e 58 363
e 58 373
e 58 403
e 58 414
e 59 60
e 59 63
e 59 78
e 59 80
e 59 139
e 59 212
e 59 224
e 59 227
e 59 255
e 59 261
e 59 270
e 59 273
e 59 274
e 59 296
e 59 338
e 59 370
e 59 388
e 59 392
e 59 402
e 60 63
e 60 78
e 60 80
e 60 152
e 60 170
e 60 211
e 60 212
e 60 224
e 60 227
e 60 261
e 60 273
e 60 274
e 60 296
e 60 322
e 60 338
e 60 370
e 60 402
e 61 62
e 61 86
e 61 87
e 61 89
e 61 258
e 61 298
e 61 314
e 61 335
e 61 345
e 61 349
e 61 366
e 61 386
e 61 392
e 61 395
e 62 86
e 62 87
e 62 89
e 62 143
e 62 229
e 62 258
e 62 298
e 62 314
e 62 342
e 62 349
e 62 392
e 62 395
e 62 408
e 63 78
e 63 80
e 63 170
e 63 212
e 63 224
e 63 227
e 63 261
e 63 270
e 63 273
e 63 296
e 63 322
e 63 338
e 63 370
e 63 388
e 63 402
e 64 68
e 64 123
e 64 126
e 64 142
e 64 161
e 64 162
e 64 163
e 64 187
e 64 295
e 64 374
e 64 379
e 65 105
e 65 190
e 65 203
e 65 211
e 65 244
e 65 245
e 65 264
e 65 268
e 65 339
e 65 341
e 65 387
e 66 92
e 66 103
e 66 119
e 66 180
e 66 358
e 66 368
e 66 376
e 66 380
e 66 385
e 67 73
e 67 110
e 67 157
e 67 213
e 67 215
e 67 291
e 67 294
e 67 305
e 67 306
e 68 142
e 68 379
e 69 100
e 69 106
e 69 173
e 69 247
e 69 318
e 69 325
e 69 391
e 70 73
e 70 106
e 70 205
e 70 213
e 70 291
e 70 305
e 70 361
e 71 97
e 71 114
e 71 150
e 71 209
e 71 259
e 71 283
e 71 302
e 71 397
e 72 147
e 72 214
e 72 246
e 72 265
e 72 284
e 72 293
e 72 347
e 73 213
e 73 215
e 73 291
e 73 294
e 74 76
e 74 151
e 74 288
e 74 400
e 75 194
e 75 214
e 75 246
e 76 151
e 76 153
e 76 400
e 77 96
e 77 135
e 77 136
e 77 396
e 78 80
e 78 82
e 78 117
e 78 139
e 78 142
e 78 152
e 78 161
e 78 224
e 78 227
e 78 251
e 78 255
e 78 256
e 78 273
e 78 274
e 78 296
e 78 312
e 78 319
e 78 330
e 78 388
e 78 402
e 79 90
e 79 118
e 79 121
e 79 125
e 79 146
e 79 165
e 79 179
e 79 206
e 79 220
e 79 233
e 79 239
e 79 309
e 79 311
e 79 333
e 79 369
e 79 375
e 79 378
e 79 383
e 80 117
e 80 139
e 80 224
e 80 227
e 80 255
e 80 256
e 80 261
e 80 273
e 80 274
e 80 296
e 80 312
e 80 319
e 80 330
e 80 370
e 80 388
e 80 392
e 80 402
e 81 143
e 81 178
e 81 197
e 81 198
e 81 228
e 81 237
e 81 241
e 81 297
e 81 349
e 81 350
e 81 354
e 81 373
e 81 390
e 81 403
e 81 407
e 81 408
e 81 414
e 82 86
e 82 87
e 82 89
e 82 117
e 82 139
e 82 142
e 82 161
e 82 229
e 82 255
e 82 256
e 82 273
e 82 274
e 82 312
e 82 330
e 82 388
e 82 392
e 82 402
e 83 113
e 83 115
e 83 222
e 83 249
e 83 275
e 83 308
e 83 313
e 83 348
e 83 350
e 83 351
e 83 357
e 83 363
e 83 365
e 83 366
e 83 381
e 83 393
e 83 403
e 83 416
e 84 85
e 84 140
e 84 200
e 84 219
e 84 223
e 84 226
e 84 260
e 84 277
e 84 278
e 84 315
e 84 329
e 84 364
e 84 371
e 84 391
e 84 404
e 84 405
e 85 140
e 85 200
e 85 219
e 85 223
e 85 260
e 85 277
e 85 278
e 85 315
e 85 329
e 85 352
e 85 364
e 85 371
e 85 404
e 85 405
e 86 87
e 86 89
e 86 117
e 86 139
e 86 229
e 86 255
e 86 258
e 86 261
e 86 298
e 86 312
e 86 314
e 86 388
e 86 392
e 86 395
e 86 402
e 87 89
e 87 139
e 87 255
e 87 258
e 87 261
e 87 298
e 87 314
e 87 386
e 87 388
e 87 392
e 87 395
e 87 402
e 88 94
e 88 128
e 88 167
e 88 176
e 88 238
e 88 242
e 88 262
e 88 279
e 88 320
e 88 334
e 88 356
e 88 382
e 88 406
e 88 413
e 89 117
e 89 139
e 89 229
e 89 255
e 89 256
e 89 273
e 89 298
e 89 312
e 89 388
e 89 392
e 89 402
e 90 99
e 90 125
e 90 206
e 90 233
e 90 239
e 90 311
e 90 333
e 90 369
e 90 375
e 90 383
e 91 96
e 91 122
e 91 130
e 91 160
e 91 204
e 91 234
e 91 266
e 91 281
e 91 282
e 91 331
e 91 336
e 91 340
e 91 362
e 91 377
e 91 410
e 92 103
e 92 119
e 92 121
e 92 149
e 92 165
e 92 166
e 92 180
e 92 220
e 92 309
e 92 368
e 92 376
e 92 378
e 92 380
e 93 145
e 93 186
e 93 188
e 93 201
e 93 223
e 93 238
e 93 262
e 93 279
e 93 304
e 93 315
e 93 320
e 93 405
e 93 411
e 93 413
e 94 118
e 94 179
e 94 201
e 94 238
e 94 262
e 94 279
e 94 320
e 94 375
e 94 382
e 94 406
e 94 413
e 95 96
e 95 122
e 95 135
e 95 160
e 95 182
e 95 183
e 95 199
e 95 236
e 95 240
e 95 263
e 95 331
e 95 396
e 95 401
e 96 122
e 96 136
e 96 160
e 96 183
e 96 199
e 96 240
e 96 282
e 96 331
e 96 396
e 97 114
e 97 150
e 97 208
e 97 209
e 97 259
e 97 283
e 97 300
e 97 302
e 97 397
e 97 398
e 98 104
e 98 120
e 98 149
e 98 189
e 98 194
e 98 292
e 98 299
e 98 301
e 98 313
e 98 324
e 98 347
e 98 360
e 99 111
e 99 206
e 99 233
e 99 239
e 99 311
e 99 369
e 99 375
e 99 383
e 100 226
e 100 247
e 100 267
e 100 318
e 100 325
e 100 391
e 101 124
e 101 134
e 101 155
e 101 207
e 101 243
e 101 271
e 101 308
e 101 317
e 101 348
e 101 351
e 101 363
e 102 150
e 102 169
e 102 178
e 102 197
e 102 237
e 102 248
e 102 252
e 102 297
e 102 407
e 102 414
e 103 104
e 103 119
e 103 149
e 103 180
e 103 220
e 103 309
e 103 376
e 103 378
e 104 146
e 104 149
e 104 292
e 104 301
e 104 347
e 104 360
e 104 378
e 105 109
e 105 170
e 105 190
e 105 211
e 105 244
e 105 245
e 105 322
e 105 387
e 106 173
e 106 213
e 106 305
e 106 306
e 106 325
e 106 361
e 106 391
e 107 132
e 107 172
e 107 195
e 107 250
e 107 264
e 107 268
e 107 341
e 108 112
e 108 171
e 108 172
e 108 250
e 108 289
e 108 343
e 108 417
e 109 170
e 109 190
e 109 211
e 109 245
e 109 322
e 110 157
e 110 215
e 110 305
e 110 306
e 111 174
e 111 239
e 111 270
e 111 383
e 112 172
e 112 250
e 112 343
e 113 115
e 113 124
e 113 222
e 113 257
e 113 275
e 113 308
e 113 313
e 113 348
e 113 350
e 113 351
e 113 354
e 113 357
e 113 363
e 113 365
e 113 393
e 113 403
e 113 409
e 114 144
e 114 164
e 114 177
e 114 181
e 114 202
e 114 209
e 114 232
e 114 259
e 114 283
e 114 300
e 114 302
e 114 332
e 114 355
e 114 389
e 114 394
e 114 397
e 114 398
e 115 120
e 115 189
e 115 222
e 115 257
e 115 275
e 115 299
e 115 308
e 115 313
e 115 317
e 115 348
e 115 351
e 115 363
e 115 365
e 115 381
e 115 393
e 115 403
e 115 409
e 116 141
e 116 159
e 116 221
e 116 231
e 116 235
e 116 269
e 116 276
e 116 310
e 116 316
e 116 352
e 116 353
e 116 364
e 116 367
e 116 372
e 116 404
e 117 139
e 117 142
e 117 161
e 117 229
e 117 255
e 117 256
e 117 273
e 117 274
e 117 312
e 117 330
e 117 388
e 117 402
e 118 119
e 118 121
e 118 165
e 118 166
e 118 179
e 118 180
e 118 201
e 118 220
e 118 238
e 118 262
e 118 309
e 118 368
e 118 376
e 119 121
e 119 165
e 119 166
e 119 179
e 119 180
e 119 220
e 119 309
e 119 358
e 119 368
e 119 376
e 119 378
e 119 380
e 119 385
e 120 189
e 120 222
e 120 257
e 120 271
e 120 275
e 120 292
e 120 299
e 120 301
e 120 308
e 120 313
e 120 317
e 120 324
e 120 360
e 120 365
e 120 409
e 121 165
e 121 166
e 121 179
e 121 180
e 121 220
e 121 309
e 121 311
e 121 368
e 121 369
e 121 376
e 122 160
e 122 183
e 122 199
e 122 234
e 122 266
e 122 281
e 122 282
e 122 331
e 122 336
e 122 377
e 122 396
e 122 410
e 123 162
e 123 163
e 123 177
e 123 187
e 123 230
e 123 295
e 123 337
e 123 374
e 123 379
e 123 399
e 124 155
e 124 207
e 124 241
e 124 243
e 124 275
e 124 308
e 124 348
e 124 351
e 124 354
e 124 363
e 124 403
e 125 146
e 125 206
e 125 233
e 125 249
e 125 311
e 125 333
e 125 369
e 125 383
e 125 416
e 126 162
e 126 187
e 126 208
e 126 209
e 126 229
e 126 286
e 126 295
e 126 300
e 126 323
e 126 342
e 126 398
e 127 141
e 127 168
e 127 184
e 127 221
e 127 225
e 127 235
e 127 280
e 127 310
e 127 321
e 127 344
e 127 353
e 127 372
e 127 415
e 128 167
e 128 176
e 128 280
e 128 321
e 128 334
e 128 356
e 128 382
e 128 406
e 129 148
e 129 175
e 129 185
e 129 217
e 129 285
e 129 290
e 129 326
e 129 358
e 129 384
e 129 385
e 129 412
e 130 192
e 130 234
e 130 253
e 130 281
e 130 336
e 130 346
e 130 359
e 130 362
e 130 377
e 131 147
e 131 214
e 131 246
e 131 265
e 131 272
e 131 284
e 131 307
e 131 327
e 132 172
e 132 203
e 132 250
e 132 264
e 132 268
e 132 341
e 132 343
e 133 156
e 133 170
e 133 174
e 133 212
e 133 254
e 133 270
e 133 338
e 134 155
e 134 207
e 134 243
e 134 271
e 134 317
e 134 363
e 135 183
e 135 236
e 135 240
e 135 396
e 135 401
e 136 183
e 136 282
e 136 396
e 137 205
e 137 210
e 137 231
e 137 269
e 138 195
e 138 244
e 139 142
e 139 161
e 139 224
e 139 227
e 139 229
e 139 255
e 139 256
e 139 261
e 139 273
e 139 274
e 139 296
e 139 312
e 139 330
e 139 388
e 139 392
e 139 402
e 140 145
e 140 186
e 140 200
e 140 219
e 140 223
e 140 226
e 140 260
e 140 277
e 140 278
e 140 315
e 140 329
e 140 371
e 140 404
e 140 405
e 140 411
e 141 151
e 141 159
e 141 168
e 141 210
e 141 225
e 141 231
e 141 235
e 141 288
e 141 310
e 141 316
e 141 353
e 141 367
e 141 372
e 141 400
e 141 415
e 142 161
e 142 229
e 142 251
e 142 255
e 142 256
e 142 274
e 142 312
e 142 319
e 142 330
e 142 379
e 143 169
e 143 178
e 143 197
e 143 198
e 143 228
e 143 237
e 143 286
e 143 297
e 143 342
e 143 349
e 143 373
e 143 390
e 143 407
e 143 408
e 144 164
e 144 177
e 144 181
e 144 202
e 144 232
e 144 259
e 144 283
e 144 332
e 144 355
e 144 389
e 144 394
e 144 397
e 145 185
e 145 186
e 145 188
e 145 219
e 145 223
e 145 226
e 145 303
e 145 304
e 145 315
e 145 405
e 145 411
e 146 149
e 146 220
e 146 301
e 146 309
e 146 333
e 146 378
e 147 214
e 147 216
e 147 246
e 147 265
e 147 272
e 147 284
e 147 293
e 147 307
e 147 327
e 148 175
e 148 185
e 148 285
e 148 290
e 148 303
e 148 326
e 148 384
e 148 385
e 148 412
e 149 180
e 149 220
e 149 301
e 149 309
e 149 378
e 150 169
e 150 208
e 150 209
e 150 237
e 150 252
e 150 297
e 150 302
e 151 153
e 151 168
e 151 288
e 151 310
e 151 400
e 151 415
e 152 224
e 152 227
e 152 251
e 152 274
e 152 319
e 152 330
e 153 168
e 153 225
e 153 266
e 153 288
e 153 400
e 153 415
e 154 193
e 154 216
e 154 217
e 154 265
e 154 272
e 154 284
e 154 327
e 155 207
e 155 241
e 155 243
e 155 348
e 155 363
e 156 170
e 156 174
e 156 253
e 156 254
e 157 305
e 157 306
e 158 196
e 159 205
e 159 210
e 159 221
e 159 231
e 159 269
e 159 276
e 159 310
e 159 316
e 159 352
e 159 353
e 159 364
e 159 367
e 159 372
e 159 404
e 160 182
e 160 183
e 160 191
e 160 199
e 160 236
e 160 240
e 160 263
e 160 282
e 160 287
e 160 331
e 160 336
e 160 362
e 160 377
e 160 396
e 161 229
e 161 251
e 161 255
e 161 256
e 161 273
e 161 274
e 161 312
e 161 319
e 161 330
e 161 402
e 162 163
e 162 177
e 162 187
e 162 230
e 162 295
e 162 300
e 162 337
e 162 374
e 162 379
e 162 398
e 162 399
e 163 177
e 163 187
e 163 230
e 163 295
e 163 337
e 163 374
e 163 379
e 163 389
e 163 399
e 164 177
e 164 181
e 164 202
e 164 230
e 164 232
e 164 259
e 164 332
e 164 355
e 164 389
e 164 394
e 165 166
e 165 179
e 165 180
e 165 220
e 165 309
e 165 368
e 165 376
e 165 378
e 166 179
e 166 180
e 166 201
e 166 220
e 166 262
e 166 309
e 166 368
e 166 376
e 167 176
e 167 238
e 167 242
e 167 279
e 167 280
e 167 320
e 167 321
e 167 334
e 167 356
e 167 406
e 167 413
e 168 184
e 168 225
e 168 235
e 168 288
e 168 310
e 168 340
e 168 353
e 168 372
e 168 400
e 168 415
e 169 197
e 169 198
e 169 208
e 169 237
e 169 286
e 169 297
e 169 342
e 169 390
e 169 407
e 169 408
e 170 174
e 170 211
e 170 212
e 170 270
e 170 322
e 170 338
e 170 370
e 171 182
e 171 191
e 171 203
e 171 250
e 171 287
e 171 289
e 171 328
e 171 339
e 171 343
e 171 417
e 172 203
e 172 250
e 172 264
e 172 339
e 172 343
e 173 213
e 173 318
e 173 325
e 173 361
e 173 391
e 174 212
e 174 253
e 174 254
e 174 270
e 174 338
e 175 185
e 175 285
e 175 290
e 175 326
e 175 384
e 175 412
e 176 280
e 176 382
e 176 406
e 177 181
e 177 202
e 177 230
e 177 232
e 177 259
e 177 295
e 177 332
e 177 337
e 177 355
e 177 374
e 177 389
e 177 394
e 177 397
e 177 399
e 178 197
e 178 198
e 178 228
e 178 237
e 178 241
e 178 248
e 178 297
e 178 350
e 178 354
e 178 373
e 178 390
e 178 407
e 178 414
e 179 180
e 179 201
e 179 238
e 179 262
e 179 309
e 179 320
e 179 368
e 179 376
e 180 220
e 180 309
e 180 368
e 180 376
e 180 378
e 180 380
e 181 202
e 181 232
e 181 259
e 181 283
e 181 332
e 181 355
e 181 389
e 181 394
e 181 397
e 182 191
e 182 196
e 182 199
e 182 236
e 182 240
e 182 263
e 182 287
e 182 289
e 182 331
e 182 401
e 182 417
e 183 199
e 183 236
e 183 240
e 183 263
e 183 282
e 183 331
e 183 396
e 183 401
e 184 204
e 184 225
e 184 234
e 184 235
e 184 266
e 184 321
e 184 340
e 184 344
e 184 359
e 184 410
e 184 415
e 185 188
e 185 285
e 185 290
e 185 303
e 185 326
e 185 358
e 185 380
e 185 384
e 185 385
e 185 412
e 186 188
e 186 219
e 186 223
e 186 226
e 186 303
e 186 304
e 186 315
e 186 405
e 186 411
e 187 208
e 187 229
e 187 295
e 187 300
e 187 323
e 187 374
e 187 398
e 188 303
e 188 304
e 188 358
e 188 368
e 188 380
e 188 384
e 188 385
e 188 405
e 188 411
e 189 218
e 189 222
e 189 257
e 189 271
e 189 299
e 189 313
e 189 317
e 189 324
e 189 360
e 189 409
e 190 211
e 190 244
e 190 245
e 190 268
e 190 322
e 190 341
e 190 387
e 191 199
e 191 263
e 191 287
e 191 289
e 191 328
e 191 362
e 191 417
e 192 253
e 192 254
e 192 281
e 192 336
e 192 346
e 192 362
e 192 377
e 193 216
e 193 217
e 193 265
e 193 272
e 193 327
e 194 292
e 194 324
e 194 347
e 195 244
e 195 268
e 196 236
e 196 401
e 197 198
e 197 228
e 197 237
e 197 286
e 197 297
e 197 342
e 197 349
e 197 350
e 197 373
e 197 390
e 197 407
e 197 408
e 198 228
e 198 237
e 198 286
e 198 297
e 198 342
e 198 349
e 198 350
e 198 373
e 198 390
e 198 407
e 198 408
e 199 236
e 199 240
e 199 263
e 199 287
e 199 289
e 199 331
e 199 336
e 199 377
e 199 396
e 199 401
e 200 219
e 200 260
e 200 277
e 200 278
e 200 329
e 200 361
e 200 364
e 200 371
e 200 391
e 200 404
e 201 238
e 201 262
e 201 279
e 201 304
e 201 315
e 201 320
e 201 368
e 201 411
e 201 413
e 202 232
e 202 259
e 202 283
e 202 332
e 202 355
e 202 389
e 202 394
e 203 245
e 203 250
e 203 264
e 203 268
e 203 328
e 203 339
e 203 341
e 203 343
e 203 387
e 203 417
e 204 225
e 204 234
e 204 266
e 204 281
e 204 282
e 204 340
e 204 344
e 204 346
e 204 359
e 204 377
e 204 410
e 205 210
e 205 231
e 205 269
e 205 316
e 205 364
e 205 367
e 206 233
e 206 239
e 206 311
e 206 369
e 206 375
e 206 383
e 207 241
e 207 243
e 207 348
e 207 354
e 207 363
e 207 414
e 208 209
e 208 286
e 208 295
e 208 300
e 208 302
e 208 323
e 208 398
e 209 300
e 209 302
e 209 323
e 209 397
e 209 398
e 210 231
e 210 269
e 210 310
e 210 316
e 210 353
e 210 367
e 211 227
e 211 244
e 211 245
e 211 322
e 211 387
e 212 261
e 212 270
e 212 296
e 212 338
e 212 370
e 213 215
e 213 291
e 213 305
e 213 306
e 213 361
e 214 246
e 214 265
e 214 284
e 214 293
e 214 307
e 215 291
e 215 294
e 215 305
e 215 306
e 216 217
e 216 265
e 216 272
e 216 284
e 216 307
e 216 327
e 217 285
e 217 412
e 218 271
e 218 299
e 218 317
e 218 324
e 219 223
e 219 226
e 219 267
e 219 277
e 219 278
e 219 315
e 219 318
e 219 329
e 219 371
e 219 391
e 219 405
e 219 411
e 220 309
e 220 311
e 220 333
e 220 376
e 220 378
e 221 231
e 221 235
e 221 242
e 221 276
e 221 280
e 221 316
e 221 321
e 221 334
e 221 352
e 221 353
e 221 364
e 221 367
e 221 372
e 222 257
e 222 275
e 222 299
e 222 308
e 222 313
e 222 317
e 222 348
e 222 351
e 222 363
e 222 365
e 222 381
e 222 403
e 222 409
e 223 226
e 223 267
e 223 278
e 223 304
e 223 315
e 223 329
e 223 405
e 223 411
e 224 227
e 224 251
e 224 273
e 224 274
e 224 296
e 224 319
e 224 322
e 224 330
e 224 370
e 224 402
e 225 234
e 225 235
e 225 266
e 225 288
e 225 321
e 225 340
e 225 344
e 225 359
e 225 400
e 225 410
e 225 415
e 226 247
e 226 267
e 226 315
e 226 318
e 226 329
e 226 391
e 226 405
e 226 411
e 227 251
e 227 273
e 227 274
e 227 296
e 227 319
e 227 322
e 227 370
e 227 402
e 228 349
e 228 350
e 228 354
e 228 373
e 228 390
e 228 403
e 228 407
e 228 408
e 229 255
e 229 256
e 229 312
e 229 323
e 230 295
e 230 332
e 230 337
e 230 374
e 230 389
e 230 394
e 230 399
e 231 269
e 231 310
e 231 316
e 231 353
e 231 367
e 231 372
e 232 259
e 232 283
e 232 332
e 232 355
e 232 389
e 232 394
e 232 397
e 233 239
e 233 311
e 233 333
e 233 369
e 233 375
e 233 383
e 234 266
e 234 281
e 234 282
e 234 336
e 234 340
e 234 346
e 234 359
e 234 377
e 234 410
e 235 288
e 235 310
e 235 316
e 235 321
e 235 353
e 235 367
e 235 372
e 235 400
e 235 415
e 236 240
e 236 263
e 236 287
e 236 289
e 236 331
e 236 396
e 236 401
e 237 248
e 237 252
e 237 297
e 237 390
e 237 407
e 237 414
e 238 262
e 238 279
e 238 320
e 238 356
e 238 382
e 238 406
e 238 413
e 239 311
e 239 369
e 239 375
e 239 383
e 240 263
e 240 287
e 240 331
e 240 396
e 240 401
e 241 243
e 241 248
e 241 348
e 241 354
e 241 403
e 241 414
e 242 276
e 242 279
e 242 280
e 242 334
e 242 352
e 242 356
e 242 404
e 242 406
e 242 413
e 243 271
e 243 308
e 243 317
e 243 348
e 243 351
e 243 354
e 243 363
e 244 264
e 244 268
e 244 341
e 244 387
e 245 264
e 245 268
e 245 328
e 245 339
e 245 341
e 245 387
e 246 265
e 246 272
e 246 284
e 246 293
e 246 307
e 247 267
e 247 318
e 247 325
e 247 391
e 248 252
e 248 297
e 248 354
e 248 407
e 248 414
e 249 301
e 249 335
e 249 357
e 249 365
e 249 366
e 249 381
e 249 393
e 249 416
e 250 264
e 250 339
e 250 343
e 250 417
e 251 256
e 251 274
e 251 319
e 251 330
e 252 297
e 252 407
e 252 414
e 253 254
e 253 346
e 255 256
e 255 273
e 255 274
e 255 296
e 255 312
e 255 330
e 255 388
e 255 392
e 255 402
e 256 273
e 256 274
e 256 312
e 256 319
e 256 330
e 256 388
e 256 402
e 257 271
e 257 275
e 257 299
e 257 308
e 257 313
e 257 317
e 257 324
e 257 348
e 257 351
e 257 360
e 257 363
e 257 365
e 257 409
e 258 298
e 258 314
e 258 335
e 258 345
e 258 349
e 258 366
e 258 373
e 258 386
e 258 395
e 258 408
e 259 283
e 259 332
e 259 355
e 259 389
e 259 394
e 259 397
e 260 277
e 260 278
e 260 329
e 260 352
e 260 361
e 260 364
e 260 371
e 260 391
e 260 404
e 261 270
e 261 273
e 261 296
e 261 338
e 261 370
e 261 388
e 261 392
e 261 402
e 262 279
e 262 304
e 262 320
e 262 368
e 262 382
e 262 413
e 263 287
e 263 289
e 263 331
e 263 336
e 263 362
e 263 377
e 263 396
e 264 268
e 264 328
e 264 339
e 264 341
e 264 343
e 264 387
e 265 272
e 265 284
e 265 293
e 265 307
e 265 327
e 266 281
e 266 282
e 266 340
e 266 359
e 266 377
e 266 410
e 267 318
e 267 325
e 267 329
e 267 391
e 268 339
e 268 341
e 268 387
e 269 310
e 269 316
e 269 353
e 269 367
e 270 296
e 270 338
e 270 370
e 271 299
e 271 308
e 271 317
e 271 351
e 271 409
e 272 284
e 272 307
e 272 327
e 273 274
e 273 296
e 273 312
e 273 319
e 273 330
e 273 370
e 273 388
e 273 392
e 273 402
e 274 312
e 274 319
e 274 330
e 274 402
e 275 308
e 275 313
e 275 348
e 275 351
e 275 357
e 275 363
e 275 365
e 275 381
e 275 393
e 275 403
e 275 409
e 276 277
e 276 280
e 276 316
e 276 334
e 276 352
e 276 353
e 276 356
e 276 364
e 276 367
e 276 372
e 276 404
e 277 278
e 277 329
e 277 352
e 277 361
e 277 364
e 277 371
e 277 404
e 278 315
e 278 329
e 278 352
e 278 364
e 278 371
e 278 404
e 278 405
e 278 411
e 279 315
e 279 320
e 279 334
e 279 356
e 279 382
e 279 406
e 279 413
e 280 321
e 280 334
e 280 344
e 280 356
e 280 372
e 280 406
e 281 282
e 281 336
e 281 340
e 281 346
e 281 359
e 281 362
e 281 377
e 281 410
e 282 331
e 282 336
e 282 377
e 282 396
e 282 410
e 283 302
e 283 332
e 283 355
e 283 397
e 284 293
e 284 307
e 284 327
e 285 290
e 285 326
e 285 358
e 285 380
e 285 384
e 285 385
e 285 412
e 286 297
e 286 323
e 286 342
e 286 349
e 286 390
e 286 408
e 287 289
e 287 331
e 287 417
e 288 310
e 288 400
e 288 415
e 289 328
e 289 417
e 290 326
e 290 384
e 290 412
e 291 294
e 291 305
e 291 306
e 292 301
e 292 324
e 292 347
e 292 360
e 293 347
e 294 305
e 294 306
e 295 300
e 295 323
e 295 337
e 295 374
e 295 389
e 295 398
e 295 399
e 296 338
e 296 370
e 296 388
e 296 392
e 296 402
e 297 390
e 297 407
e 297 414
e 298 314
e 298 349
e 298 386
e 298 388
e 298 392
e 298 395
e 298 408
e 299 313
e 299 317
e 299 324
e 299 360
e 299 365
e 299 409
e 300 302
e 300 323
e 300 374
e 300 398
e 301 313
e 301 360
e 301 365
e 301 381
e 302 397
e 302 398
e 303 304
e 303 358
e 303 368
e 303 380
e 303 384
e 303 385
e 304 315
e 304 405
e 304 411
e 305 306
e 307 327
e 308 313
e 308 317
e 308 348
e 308 351
e 308 363
e 308 365
e 308 403
e 308 409
e 309 311
e 309 333
e 309 368
e 309 376
e 309 378
e 310 316
e 310 353
e 310 367
e 310 372
e 310 400
e 310 415
e 311 333
e 311 369
e 311 375
e 311 383
e 312 319
e 312 330
e 312 388
e 312 392
e 312 402
e 313 317
e 313 351
e 313 360
e 313 365
e 313 381
e 313 409
e 314 335
e 314 345
e 314 349
e 314 366
e 314 386
e 314 395
e 314 408
e 315 329
e 315 405
e 315 411
e 316 353
e 316 367
e 316 372
e 317 351
e 317 363
e 317 409
e 318 325
e 318 329
e 318 391
e 319 330
e 320 356
e 320 382
e 320 406
e 320 413
e 321 334
e 321 344
e 321 359
e 322 370
e 323 342
e 323 398
e 324 347
e 324 360
e 325 391
e 326 384
e 326 412
e 328 339
e 328 343
e 328 417
e 329 364
e 329 371
e 329 391
e 329 404
e 329 405
e 330 402
e 331 336
e 331 362
e 331 377
e 331 396
e 332 355
e 332 389
e 332 394
e 332 397
e 333 369
e 333 378
e 334 352
e 334 356
e 334 406
e 335 345
e 335 357
e 335 366
e 335 386
e 335 393
e 335 395
e 335 416
e 336 362
e 336 377
e 336 410
e 337 374
e 337 379
e 337 399
e 338 370
e 338 388
e 339 341
e 339 343
e 339 387
e 339 417
e 340 344
e 340 359
e 340 410
e 341 387
e 342 349
e 342 390
e 342 408
e 343 417
e 344 346
e 344 359
e 345 366
e 345 386
e 345 395
e 346 359
e 346 410
e 347 360
e 348 351
e 348 354
e 348 363
e 348 403
e 348 409
e 349 350
e 349 373
e 349 390
e 349 395
e 349 408
e 350 354
e 350 357
e 350 366
e 350 373
e 350 390
e 350 393
e 350 403
e 351 363
e 351 365
e 351 403
e 351 409
e 352 356
e 352 364
e 352 371
e 352 404
e 353 367
e 353 372
e 354 363
e 354 373
e 354 403
e 354 414
e 355 389
e 355 394
e 355 397
e 356 406
e 356 413
e 357 366
e 357 381
e 357 393
e 357 416
e 358 368
e 358 376
e 358 380
e 358 384
e 358 385
e 358 412
e 359 410
e 360 365
e 361 371
e 361 391
e 362 377
e 363 403
e 363 409
e 364 371
e 364 404
e 365 381
e 365 393
e 365 409
e 366 381
e 366 386
e 366 393
e 366 395
e 366 416
e 367 372
e 368 376
e 368 380
e 369 375
e 369 383
e 370 388
e 370 402
e 371 404
e 373 390
e 373 407
e 373 408
e 374 389
e 374 398
e 374 399
e 375 382
e 375 383
e 376 380
e 377 410
e 379 399
e 380 384
e 380 385
e 380 412
e 381 393
e 381 416
e 382 406
e 382 413
e 384 385
e 384 412
e 385 412
e 386 395
e 388 392
e 388 402
e 389 394
e 389 399
e 390 407
e 390 408
e 392 395
e 392 402
e 393 403
e 393 416
e 397 398
e 400 415
e 405 411
e 406 413
e 407 414
